106	22	4	106	
10	10	10	10

0	0	0	0	0	0	3	1	2	3
1	9	9	4	1	9	2	4	12
2	9	5	9	6	1	1	19
3	10	1	3	10	7	1	5
4	5	8	10	8	7	1	9
5	4	9	3	4	7	1	6
6	5	6	7	6	2	1	7
7	4	1	9	6	9	1	8
8	2	4	6	5	5	1	10
9	1	10	5	5	7	1	14
10	9	3	9	2	6	1	11
11	3	8	3	8	5	1	12
12	1	6	7	7	6	1	13
13	10	6	8	1	4	1	16
14	4	1	4	10	6	1	15
15	7	6	10	8	4	1	18
16	8	7	6	3	5	2	17	19
17	5	8	6	6	1	1	20
18	7	8	3	9	4	1	21
19	5	9	4	3	10	1	21
20	3	3	1	7	1	1	21
21	0	0	0	0	0	0
